NAME : g01
TYPE : CVRP
DIMENSION : 241
VEHICLES : 9
CAPACITY : 550
DISTANCE : 650
EDGE_WEIGHT_TYPE : EXACT_2D
NODE_COORD_SECTION
1 0.0000 0.0000
2 30.0000 0.0000
3 29.6306 4.6930
4 28.5317 9.2705
5 26.7302 13.6197
6 24.2705 17.6336
7 21.2132 21.2132
8 17.6336 24.2705
9 13.6197 26.7302
10 9.2705 28.5317
11 4.6930 29.6306
12 0.0000 30.0000
13 -4.6930 29.6306
14 -9.2705 28.5317
15 -13.6197 26.7302
16 -17.6336 24.2705
17 -21.2132 21.2132
18 -24.2705 17.6336
19 -26.7302 13.6197
20 -28.5317 9.2705
21 -29.6307 4.6930
22 -30.0000 0.0000
23 -29.6306 -4.6930
24 -28.5317 -9.2705
25 -26.7302 -13.6197
26 -24.2705 -17.6336
27 -21.2132 -21.2132
28 -17.6336 -24.2705
29 -13.6197 -26.7302
30 -9.2705 -28.5317
31 -4.6930 -29.6307
32 0.0000 -30.0000
33 4.6930 -29.6306
34 9.2705 -28.5317
35 13.6197 -26.7302
36 17.6336 -24.2705
37 21.2132 -21.2132
38 24.2705 -17.6336
39 26.7302 -13.6197
40 28.5317 -9.2705
41 29.6307 -4.6930
42 60.0000 0.0000
43 59.2613 9.3861
44 57.0634 18.5410
45 53.4604 27.2394
46 48.5410 35.2671
47 42.4264 42.4264
48 35.2671 48.5410
49 27.2394 53.4604
50 18.5410 57.0634
51 9.3861 59.2613
52 0.0000 60.0000
53 -9.3861 59.2613
54 -18.5410 57.0634
55 -27.2394 53.4604
56 -35.2671 48.5410
57 -42.4264 42.4264
58 -48.5410 35.2671
59 -53.4604 27.2394
60 -57.0634 18.5410
61 -59.2613 9.3861
62 -60.0000 0.0000
63 -59.2613 -9.3861
64 -57.0634 -18.5410
65 -53.4604 -27.2394
66 -48.5410 -35.2671
67 -42.4264 -42.4264
68 -35.2671 -48.5410
69 -27.2394 -53.4604
70 -18.5410 -57.0634
71 -9.3861 -59.2613
72 0.0000 -60.0000
73 9.3861 -59.2613
74 18.5410 -57.0634
75 27.2394 -53.4604
76 35.2671 -48.5410
77 42.4264 -42.4264
78 48.5410 -35.2671
79 53.4604 -27.2394
80 57.0634 -18.5410
81 59.2613 -9.3861
82 90.0000 0.0000
83 88.8920 14.0791
84 85.5951 27.8115
85 80.1906 40.8591
86 72.8115 52.9007
87 63.6396 63.6396
88 52.9007 72.8115
89 40.8591 80.1906
90 27.8115 85.5951
91 14.0791 88.8920
92 0.0000 90.0000
93 -14.0791 88.8920
94 -27.8115 85.5951
95 -40.8591 80.1906
96 -52.9007 72.8115
97 -63.6396 63.6396
98 -72.8115 52.9007
99 -80.1906 40.8591
100 -85.5951 27.8115
101 -88.8920 14.0791
102 -90.0000 0.0000
103 -88.8920 -14.0791
104 -85.5951 -27.8115
105 -80.1906 -40.8592
106 -72.8115 -52.9007
107 -63.6396 -63.6396
108 -52.9007 -72.8115
109 -40.8591 -80.1906
110 -27.8115 -85.5951
111 -14.0791 -88.8920
112 0.0000 -90.0000
113 14.0791 -88.8920
114 27.8115 -85.5951
115 40.8592 -80.1906
116 52.9007 -72.8115
117 63.6396 -63.6396
118 72.8115 -52.9007
119 80.1906 -40.8591
120 85.5951 -27.8115
121 88.8920 -14.0791
122 120.0000 0.0000
123 118.5226 18.7721
124 114.1268 37.0820
125 106.9208 54.4789
126 97.0820 70.5342
127 84.8528 84.8528
128 70.5342 97.0820
129 54.4789 106.9208
130 37.0820 114.1268
131 18.7721 118.5226
132 0.0000 120.0000
133 -18.7721 118.5226
134 -37.0820 114.1268
135 -54.4789 106.9208
136 -70.5342 97.0820
137 -84.8528 84.8528
138 -97.0820 70.5342
139 -106.9208 54.4789
140 -114.1268 37.0820
141 -118.5226 18.7721
142 -120.0000 0.0000
143 -118.5226 -18.7721
144 -114.1268 -37.0821
145 -106.9208 -54.4789
146 -97.0820 -70.5342
147 -84.8528 -84.8528
148 -70.5342 -97.0820
149 -54.4788 -106.9208
150 -37.0820 -114.1268
151 -18.7721 -118.5226
152 0.0000 -120.0000
153 18.7722 -118.5226
154 37.0821 -114.1268
155 54.4789 -106.9208
156 70.5342 -97.0820
157 84.8528 -84.8528
158 97.0821 -70.5342
159 106.9208 -54.4788
160 114.1268 -37.0820
161 118.5226 -18.7721
162 150.0000 0.0000
163 148.1532 23.4652
164 142.6585 46.3526
165 133.6510 68.0986
166 121.3525 88.1678
167 106.0660 106.0660
168 88.1678 121.3526
169 68.0986 133.6510
170 46.3525 142.6585
171 23.4652 148.1533
172 0.0000 150.0000
173 -23.4652 148.1532
174 -46.3526 142.6585
175 -68.0986 133.6510
176 -88.1678 121.3525
177 -106.0660 106.0660
178 -121.3526 88.1678
179 -133.6510 68.0986
180 -142.6585 46.3525
181 -148.1533 23.4652
182 -150.0000 0.0000
183 -148.1532 -23.4652
184 -142.6585 -46.3526
185 -133.6510 -68.0986
186 -121.3525 -88.1678
187 -106.0660 -106.0660
188 -88.1678 -121.3526
189 -68.0986 -133.6510
190 -46.3525 -142.6585
191 -23.4652 -148.1533
192 0.0000 -150.0000
193 23.4652 -148.1532
194 46.3526 -142.6585
195 68.0986 -133.6510
196 88.1678 -121.3525
197 106.0660 -106.0660
198 121.3526 -88.1678
199 133.6510 -68.0986
200 142.6585 -46.3525
201 148.1533 -23.4651
202 180.0000 0.0000
203 177.7839 28.1582
204 171.1902 55.6231
205 160.3812 81.7183
206 145.6231 105.8013
207 127.2792 127.2792
208 105.8013 145.6231
209 81.7183 160.3812
210 55.6231 171.1902
211 28.1582 177.7839
212 0.0000 180.0000
213 -28.1582 177.7839
214 -55.6231 171.1902
215 -81.7183 160.3812
216 -105.8014 145.6230
217 -127.2792 127.2792
218 -145.6231 105.8013
219 -160.3812 81.7183
220 -171.1902 55.6230
221 -177.7839 28.1582
222 -180.0000 0.0000
223 -177.7839 -28.1582
224 -171.1902 -55.6231
225 -160.3812 -81.7183
226 -145.6230 -105.8014
227 -127.2792 -127.2792
228 -105.8013 -145.6231
229 -81.7183 -160.3812
230 -55.6230 -171.1902
231 -28.1582 -177.7839
232 0.0000 -180.0000
233 28.1582 -177.7839
234 55.6231 -171.1902
235 81.7183 -160.3812
236 105.8014 -145.6230
237 127.2792 -127.2792
238 145.6231 -105.8013
239 160.3812 -81.7183
240 171.1902 -55.6230
241 177.7839 -28.1582
DEMAND_SECTION
1 0
2 10
3 30
4 30
5 10
6 10
7 30
8 30
9 10
10 10
11 30
12 30
13 10
14 10
15 30
16 30
17 10
18 10
19 30
20 30
21 10
22 10
23 30
24 30
25 10
26 10
27 30
28 30
29 10
30 10
31 30
32 30
33 10
34 10
35 30
36 30
37 10
38 10
39 30
40 30
41 10
42 10
43 30
44 30
45 10
46 10
47 30
48 30
49 10
50 10
51 30
52 30
53 10
54 10
55 30
56 30
57 10
58 10
59 30
60 30
61 10
62 10
63 30
64 30
65 10
66 10
67 30
68 30
69 10
70 10
71 30
72 30
73 10
74 10
75 30
76 30
77 10
78 10
79 30
80 30
81 10
82 10
83 30
84 30
85 10
86 10
87 30
88 30
89 10
90 10
91 30
92 30
93 10
94 10
95 30
96 30
97 10
98 10
99 30
100 30
101 10
102 10
103 30
104 30
105 10
106 10
107 30
108 30
109 10
110 10
111 30
112 30
113 10
114 10
115 30
116 30
117 10
118 10
119 30
120 30
121 10
122 10
123 30
124 30
125 10
126 10
127 30
128 30
129 10
130 10
131 30
132 30
133 10
134 10
135 30
136 30
137 10
138 10
139 30
140 30
141 10
142 10
143 30
144 30
145 10
146 10
147 30
148 30
149 10
150 10
151 30
152 30
153 10
154 10
155 30
156 30
157 10
158 10
159 30
160 30
161 10
162 10
163 30
164 30
165 10
166 10
167 30
168 30
169 10
170 10
171 30
172 30
173 10
174 10
175 30
176 30
177 10
178 10
179 30
180 30
181 10
182 10
183 30
184 30
185 10
186 10
187 30
188 30
189 10
190 10
191 30
192 30
193 10
194 10
195 30
196 30
197 10
198 10
199 30
200 30
201 10
202 10
203 30
204 30
205 10
206 10
207 30
208 30
209 10
210 10
211 30
212 30
213 10
214 10
215 30
216 30
217 10
218 10
219 30
220 30
221 10
222 10
223 30
224 30
225 10
226 10
227 30
228 30
229 10
230 10
231 30
232 30
233 10
234 10
235 30
236 30
237 10
238 10
239 30
240 30
241 10
DEPOT_SECTION
1 
-1
EOF
